Nb of jobs, Nb of Machines, Time seed, Machine seed, Upper bound, Lower bound
3,6,-1,-1,-1,-1
Times
88,50,79,80,50,49
18,89,2,80,80,2
66,52,16,13,82,60
Machines
2,5,1,3,4,6
3,6,5,1,4,2
4,1,6,2,5,3
